n_res = 4;
rc = [ 18, 22, 15, 15 ];
n_tasks = 30;
d = [ 10, 1, 9, 5, 2, 2, 5, 6, 7, 3, 1, 7, 7, 4, 8, 9, 9, 9, 3, 9, 6, 5, 9, 6, 7, 6, 7, 6, 8, 9 ];
rr = [| 0, 7, 0, 3, 4, 0, 0, 0, 0, 0, 0, 1, 0, 2, 10, 6, 7, 6, 3, 5, 4, 10, 0, 7, 4, 6, 0, 1, 0, 5
      | 0, 0, 0, 0, 9, 0, 8, 10, 5, 0, 9, 10, 8, 0, 10, 0, 0, 0, 0, 0, 0, 6, 0, 10, 0, 1, 8, 1, 5, 0
      | 6, 0, 2, 0, 0, 10, 0, 0, 5, 7, 9, 0, 0, 1, 0, 2, 6, 0, 4, 0, 4, 9, 2, 0, 0, 5, 0, 0, 0, 0
      | 1, 8, 4, 3, 0, 9, 2, 5, 3, 10, 7, 0, 0, 0, 0, 0, 6, 8, 0, 0, 0, 0, 0, 3, 4, 0, 7, 0, 0, 0 |];
suc = [ { 2 }, 
        { 3 }, 
        { 4 }, 
        { 5 }, 
        { 6 }, 
        { 7 }, 
        { 8 }, 
        { 9 }, 
        { 10 }, 
        { 11 }, 
        { 12 }, 
        { 13 }, 
        { 14 }, 
        { 15 }, 
        { 16 }, 
        { 17 }, 
        { 18 }, 
        { 19 }, 
        { 20 }, 
        { 21 }, 
        { 22 }, 
        { 23 }, 
        { 24 }, 
        { 25 }, 
        { 26 }, 
        { 27 }, 
        { 28 }, 
        { 29 }, 
        { 30 }, 
        {  }]; 
